=obj= 0.1500025774
0	A01	0.003
1	A02	0.0
2	A03	0.002
3	A04	0.03
4	A05	0.0
5	A06	0.014
6	A07	0.003
7	A08	0.004
8	A09	0.011
9	A10	0.004
10	A11	0.04
11	A12	0.032
12	A13	0.024
13	A14	0.04
14	A15	0.04
15	A16	0.008
16	A17	0.008
17	A18	0.0
18	A19	0.01
19	A20	0.026
20	A21	0.006
21	A22	0.04
22	A23	0.034
23	A24	0.008
24	A25	0.287
25	B01	0.0
26	B02	0.0
27	B03	0.0
28	B04	0.0
29	B05	0.0
30	B06	0.0
31	B07	0.0
32	B08	0.0
33	B09	0.0
34	B10	0.0
35	B11	0.0
36	B12	0.0
37	B13	0.0
38	B14	0.0
39	B15	0.0
40	B16	0.0
41	B17	0.0
42	B18	0.0
43	B19	0.0
44	B20	0.0
45	B21	0.0
46	B22	0.0
47	B23	0.0
48	B24	0.0
49	B25	0.326
50	D0001	1.0
51	D0002	1.0
52	D0003	0.0
53	D0004	0.0
54	D0005	1.0
55	D0006	1.0
56	D0007	1.0
57	D0008	0.0
58	D0009	0.0
59	D0010	0.0
60	D0011	0.0
61	D0012	1.0
62	D0013	0.0
63	D0014	0.0
64	D0015	0.0
65	D0016	0.0
66	D0017	1.0
67	D0018	1.0
68	D0019	1.0
69	D0020	1.0
70	D0021	0.0
71	D0022	1.0
72	D0023	0.0
73	D0024	0.0
74	D0025	1.0
75	D0026	1.0
76	D0027	0.0
77	D0028	1.0
78	D0029	0.0
79	D0030	0.0
80	D0031	1.0
81	D0032	0.0
82	D0033	0.0
83	D0034	1.0
84	D0035	0.0
85	D0036	0.0
86	D0037	1.0
87	D0038	0.0
88	D0039	0.0
89	D0040	1.0
90	D0041	0.0
91	D0042	0.0
92	D0043	0.0
93	D0044	0.0
94	D0045	1.0
95	D0046	0.0
96	D0047	0.0
97	D0048	1.0
98	D0049	0.0
99	D0050	0.0
100	D0051	0.0
101	D0052	1.0
102	D0053	1.0
103	D0054	1.0
104	D0055	1.0
105	D0056	0.0
106	D0057	1.0
107	D0058	0.0
108	D0059	1.0
109	D0060	1.0
110	D0061	0.0
111	D0062	1.0
112	D0063	1.0
113	D0064	0.0
114	D0065	0.0
115	D0066	1.0
116	D0067	1.0
117	D0068	0.0
118	D0069	0.0
119	D0070	1.0
120	D0071	1.0
121	D0072	0.0
122	D0073	1.0
123	D0074	1.0
124	D0075	0.0
125	D0076	0.0
126	D0077	1.0
127	D0078	0.0
128	D0079	1.0
129	D0080	0.0
130	D0081	1.0
131	D0082	1.0
132	D0083	1.0
133	D0084	0.0
134	D0085	0.0
135	D0086	1.0
136	D0087	0.0
137	D0088	0.0
138	D0089	0.0
139	D0090	1.0
140	D0091	1.0
141	D0092	0.0
142	D0093	0.0
143	D0094	1.0
144	D0095	1.0
145	D0096	0.0
146	D0097	0.0
147	D0098	1.0
148	D0099	1.0
149	D0100	0.0
150	D0101	1.0
151	D0102	1.0
152	D0103	0.0
153	D0104	1.0
154	D0105	1.0
155	D0106	0.0
156	D0107	0.0
157	D0108	1.0
158	D0109	0.0
159	D0110	1.0
160	D0111	0.0
161	D0112	0.0
162	D0113	1.0
163	D0114	0.0
164	D0115	1.0
165	D0116	1.0
166	D0117	0.0
167	D0118	1.0
168	D0119	0.0
169	D0120	1.0
170	D0121	0.0
171	D0122	0.0
172	D0123	0.0
173	D0124	1.0
174	D0125	0.0
175	D0126	1.0
176	D0127	1.0
177	D0128	0.0
178	D0129	0.0
179	D0130	0.0
180	D0131	0.0
181	D0132	0.0
182	D0133	1.0
183	D0134	1.0
184	D0135	0.0
185	D0136	0.0
186	D0137	1.0
187	D0138	0.0
188	D0139	1.0
189	D0140	0.0
190	D0141	0.0
191	D0142	1.0
192	D0143	0.0
193	D0144	1.0
194	D0145	1.0
195	D0146	1.0
196	D0147	0.0
197	D0148	1.0
198	D0149	0.0
199	D0150	1.0
200	D0151	1.0
201	D0152	1.0
202	D0153	0.0
203	D0154	1.0
204	D0155	0.0
205	D0156	0.0
206	D0157	1.0
207	D0158	1.0
208	D0159	0.0
209	D0160	1.0
210	D0161	0.0
211	D0162	0.0
212	D0163	1.0
213	D0164	1.0
214	D0165	1.0
215	D0166	1.0
216	D0167	1.0
217	D0168	1.0
218	D0169	1.0
219	D0170	0.0
220	D0171	1.0
221	D0172	0.0
222	D0173	1.0
223	D0174	0.0
224	D0175	0.0
225	D0176	1.0
226	D0177	0.0
227	D0178	0.0
228	D0179	0.0
229	D0180	1.0
230	D0181	1.0
231	D0182	1.0
232	D0183	1.0
233	D0184	0.0
234	D0185	1.0
235	D0186	0.0
236	D0187	1.0
237	D0188	0.0
238	D0189	0.0
239	D0190	1.0
240	D0191	1.0
241	D0192	0.0
242	D0193	0.0
243	D0194	0.0
244	D0195	0.0
245	D0196	0.0
246	D0197	1.0
247	D0198	1.0
248	D0199	0.0
249	D0200	1.0
250	D0201	0.0
251	D0202	0.0
252	D0203	0.0
253	D0204	1.0
254	D0205	0.0
255	D0206	1.0
256	D0207	0.0
257	D0208	1.0
258	D0209	1.0
259	D0210	1.0
260	D0211	0.0
261	D0212	1.0
262	D0213	1.0
263	D0214	0.0
264	D0215	0.0
265	D0216	1.0
266	D0217	1.0
267	D0218	1.0
268	D0219	1.0
269	D0220	1.0
270	D0221	1.0
271	D0222	1.0
272	D0223	0.0
273	D0224	0.0
274	D0225	1.0
275	D0226	0.0
276	D0227	0.0
277	D0228	0.0
278	D0229	0.0
279	D0230	1.0
280	D0231	0.0
281	D0232	0.0
282	D0233	0.0
283	D0234	0.0
284	D0235	1.0
285	D0236	0.0
286	D0237	0.0
287	D0238	1.0
288	D0239	0.0
289	D0240	0.0
290	D0241	0.0
291	D0242	0.0
292	D0243	0.0
293	D0244	0.0
294	D0245	0.0
295	D0246	0.0
296	D0247	0.0
297	D0248	1.0
298	D0249	0.0
299	D0250	0.0
300	D0251	0.0
301	D0252	1.0
302	D0253	1.0
303	D0254	0.0
304	D0255	1.0
305	D0256	0.0
306	D0257	0.0
307	D0258	0.0
308	D0259	0.0
309	D0260	0.0
310	D0261	0.0
311	D0262	1.0
312	D0263	1.0
313	D0264	0.0
314	D0265	0.0
315	D0266	0.0
316	D0267	1.0
317	D0268	1.0
318	D0269	1.0
319	D0270	0.0
320	D0271	0.0
321	D0272	1.0
322	D0273	0.0
323	D0274	1.0
324	D0275	0.0
325	D0276	1.0
326	D0277	1.0
327	D0278	1.0
328	D0279	1.0
329	D0280	1.0
330	D0281	1.0
331	D0282	0.0
332	D0283	1.0
333	D0284	0.0
334	D0285	1.0
335	D0286	1.0
336	D0287	0.0
337	D0288	0.0
338	D0289	1.0
339	D0290	0.0
340	D0291	1.0
341	D0292	1.0
342	D0293	1.0
343	D0294	0.0
344	D0295	1.0
345	D0296	0.0
346	D0297	0.0
347	D0298	0.0
348	D0299	1.0
349	D0300	1.0
350	D0301	0.0
351	D0302	0.012987013
352	D0303	0.004995005
353	D0304	0.00999001
354	D0305	0.031968032
355	D0306	0.004995005
356	D0307	0.00999001
357	D0308	0.0
358	D0309	0.0549450549
359	D0310	0.0
360	D0311	0.0
361	D0312	0.0
362	D0313	0.011988012
363	D0314	0.011988012
364	D0315	0.04995005
365	D0316	0.033966034
366	D0317	0.031968032
367	D0318	0.0529470529
368	D0319	0.025974026
369	D0320	0.007992008
370	D0321	0.0
371	D0322	0.001998002
372	D0323	0.0
373	D0324	0.0739260739
374	D0325	0.0
375	D0326	0.0
376	D0327	0.037962038
377	D0328	0.0899100899
378	D0329	0.00999001
379	D0330	0.0819180819
380	D0331	0.00999001
381	D0332	0.001998002
382	D0333	0.0
383	D0334	0.0759240759
384	D0335	0.0
385	D0336	0.0
386	D0337	0.0
387	D0338	0.041958042
388	D0339	0.0
389	D0340	0.0
390	D0341	0.0559440559
391	D0342	0.0
392	D0343	0.00999001
393	D0344	0.0699300699
394	D0345	0.031968032
395	D0346	0.004995005
396	D0347	0.02997003
397	D0348	0.035964036
398	D0349	0.041958042
399	D0350	0.0
400	D0351	0.012987013
401	D0352	0.030969031
402	D0353	0.0
403	D0354	0.0609390609
404	D0355	0.003996004
405	D0356	0.025974026
406	D0357	0.018981019
407	D0358	0.1068931069
408	D0359	0.0
409	D0360	0.00999001
410	D0361	0.0
411	D0362	0.0
412	D0363	0.00999001
413	D0364	0.034965035
414	D0365	0.01998002
415	D0366	0.0
416	D0367	0.014985015
417	D0368	0.0
418	D0369	0.004995005
419	D0370	0.00999001
420	D0371	0.004995005
421	D0372	0.00999001
422	D0373	0.027972028
423	D0374	0.0
424	D0375	0.031968032
425	D0376	0.00999001
426	D0377	0.025974026
427	D0378	0.015984016
428	D0379	0.0
429	D0380	0.00999001
430	D0381	0.011988012
431	D0382	0.00999001
432	D0383	0.01998002
433	D0384	0.045954046
434	D0385	0.012987013
435	D0386	0.001998002
436	D0387	0.0
437	D0388	0.014985015
438	D0389	0.041958042
439	D0390	0.0579420579
440	D0391	0.01998002
441	D0392	0.043956044
442	D0393	0.017982018
443	D0394	0.007992008
444	D0395	0.0
445	D0396	0.0
446	D0397	0.0
447	D0398	0.025974026
448	D0399	0.03996004
449	D0400	0.1038961039
450	D0401	0.0
451	D0402	0.04995005
452	D0403	0.0
453	D0404	0.0
454	D0405	0.007992008
455	D0406	0.0549450549
456	D0407	0.007992008
457	D0408	0.011988012
458	D0409	0.01998002
459	D0410	0.01998002
460	D0411	0.03996004
461	D0412	0.011988012
462	D0413	0.033966034
463	D0414	0.027972028
464	D0415	0.0
465	D0416	0.017982018
466	D0417	0.004995005
467	D0418	0.035964036
468	D0419	0.010989011
469	D0420	0.015984016
470	D0421	0.012987013
471	D0422	0.0
472	D0423	0.0
473	D0424	0.0
474	D0425	0.017982018
475	D0426	0.0
476	D0427	0.0
477	D0428	0.012987013
478	D0429	0.0
479	D0430	0.023976024
480	D0431	0.041958042
481	D0432	0.001998002
482	D0433	0.022977023
483	D0434	0.031968032
484	D0435	0.017982018
485	D0436	0.1098901099
486	D0437	0.0
487	D0438	0.041958042
488	D0439	0.045954046
489	D0440	0.0
490	D0441	0.0559440559
491	D0442	0.0
492	D0443	0.041958042
493	D0444	0.0
494	D0445	0.0
495	D0446	0.0639360639
496	D0447	0.0539460539
497	D0448	0.037962038
498	D0449	0.0
499	D0450	0.033966034
500	D0451	0.01998002
501	D0452	0.0739260739
502	D0453	0.0
503	D0454	0.035964036
504	D0455	0.0
505	D0456	0.0679320679
506	D0457	0.0
507	D0458	0.0659340659
508	D0459	0.033966034
509	D0460	0.001998002
510	D0461	0.041958042
511	D0462	0.02997003
512	D0463	0.0
513	D0464	0.1128871129
514	D0465	0.0
515	D0466	0.0
516	D0467	0.0
517	D0468	0.007992008
518	D0469	0.005994006
519	D0470	0.0
520	D0471	0.015984016
521	D0472	0.005994006
522	D0473	0.007992008
523	D0474	0.0
524	D0475	0.0
525	D0476	0.04995005
526	D0477	0.028971029
527	D0478	0.031968032
528	D0479	0.0
529	D0480	0.0919080919
530	D0481	0.0
531	D0482	0.018981019
532	D0483	0.0
533	D0484	0.043956044
534	D0485	0.0
